; benchmark generated from python API
(set-info :status unknown)
(declare-datatypes ((IntState 0)) (((Mk1 (val1 Int)) (Mk2 (val2 Int)))))
 (declare-fun c_main_~i~6 () Int)
(declare-fun c_main_~j~6 () Int)
(declare-fun c_main_~k~6 () Int)
(assert
 (let (($x50 (<= c_main_~j~6 (+ (* 2 c_main_~i~6) 1))))
 (let (($x7 (<= c_main_~j~6 (+ (* 2 c_main_~i~6) 2))))
 (let (($x134 (<= c_main_~i~6 3)))
 (let (($x103 (exists ((main_~i~6_st IntState) (val!20 Int) )(let ((?x56 (val2 main_~i~6_st)))
 (let (($x111 (<= ?x56 3)))
 (let (($x91 (and (<= c_main_~j~6 (+ (* 2 ?x56) 2)) $x111 (<= ?x56 c_main_~k~6))))
 (let (($x52 (not (= main_~i~6_st (Mk1 val!20)))))
 (and $x52 $x91))))))
 ))
 (let (($x126 (<= c_main_~i~6 2)))
 (let ((?x78 (* 2 c_main_~i~6)))
 (let (($x122 (<= c_main_~j~6 ?x78)))
 (let (($x138 (exists ((main_~i~6 Int) )(let (($x60 (<= main_~i~6 3)))
 (and (<= c_main_~j~6 (+ (* 2 main_~i~6) 2)) $x60 (<= main_~i~6 c_main_~k~6))))
 ))
 (and (and $x126 $x138 $x122 $x134 $x7 $x50) (not (and $x126 $x103 $x134 $x7 $x50))))))))))))
(check-sat)
